(set-info :smt-lib-version 2.6)
(set-logic QF_LIA)
(set-info :source |
Older mathsat benchmarks.  Contact Mathsat group at http://mathsat.itc.it/ for
more information.

This benchmark was automatically translated into SMT-LIB format from
CVC format using CVC Lite
|)
(set-info :category "industrial")
(set-info :status unsat)
(declare-fun AT4_PROC1_X () Int)
(declare-fun AT2_PROC1_X () Int)
(declare-fun AT0_PROC1_X () Int)
(declare-fun AT3_PROC1_SW_A_B_TAU () Bool)
(declare-fun AT1_PROC1_SW_B_C_TAU () Bool)
(declare-fun AT0_ID0 () Bool)
(declare-fun AT0_ID1 () Bool)
(declare-fun AT4_PROC1_CS () Bool)
(declare-fun AT4_ID0 () Bool)
(declare-fun AT3_DELTA () Bool)
(declare-fun AT4_ID1 () Bool)
(declare-fun AT2_PROC1_SW_B_C_TAU () Bool)
(declare-fun AT1_PROC1_WAIT () Bool)
(declare-fun AT4_PROC1_C () Bool)
(declare-fun AT2_Z () Int)
(declare-fun AT4_PROC1_B () Bool)
(declare-fun AT3_PROC1_SW_B_C_TAU () Bool)
(declare-fun AT4_PROC1_A () Bool)
(declare-fun AT2_PROC1_C () Bool)
(declare-fun AT2_PROC1_B () Bool)
(declare-fun AT2_PROC1_A () Bool)
(declare-fun AT0_PROC1_C () Bool)
(declare-fun AT0_PROC1_B () Bool)
(declare-fun AT0_PROC1_A () Bool)
(declare-fun AT2_PROC1_CS () Bool)
(declare-fun AT3_PROC1_WAIT () Bool)
(declare-fun AT1_ID0 () Bool)
(declare-fun AT1_ID1 () Bool)
(declare-fun AT0_PROC1_SW_CS_A_TAU () Bool)
(declare-fun AT3_PROC1_SW_C_CS_TAU () Bool)
(declare-fun AT4_Z () Int)
(declare-fun AT3_PROC1_X () Int)
(declare-fun AT1_PROC1_X () Int)
(declare-fun AT1_Z () Int)
(declare-fun AT2_ID0 () Bool)
(declare-fun AT2_ID1 () Bool)
(declare-fun AT0_PROC1_SW_C_B_TAU () Bool)
(declare-fun AT0_PROC1_CS () Bool)
(declare-fun AT0_PROC1_TAU () Bool)
(declare-fun AT2_PROC1_SW_CS_A_TAU () Bool)
(declare-fun AT0_PROC1_SW_C_CS_TAU () Bool)
(declare-fun AT0_PROC1_WAIT () Bool)
(declare-fun AT3_PROC1_CS () Bool)
(declare-fun AT1_PROC1_SW_C_B_TAU () Bool)
(declare-fun AT3_PROC1_C () Bool)
(declare-fun AT3_PROC1_B () Bool)
(declare-fun AT3_PROC1_A () Bool)
(declare-fun AT1_PROC1_C () Bool)
(declare-fun AT3_PROC1_SW_CS_A_TAU () Bool)
(declare-fun AT1_PROC1_SW_C_CS_TAU () Bool)
(declare-fun AT1_PROC1_B () Bool)
(declare-fun AT1_PROC1_A () Bool)
(declare-fun AT2_PROC1_SW_C_B_TAU () Bool)
(declare-fun AT0_DELTA () Bool)
(declare-fun AT1_PROC1_TAU () Bool)
(declare-fun AT1_PROC1_CS () Bool)
(declare-fun AT3_PROC1_SW_C_B_TAU () Bool)
(declare-fun AT3_Z () Int)
(declare-fun AT3_ID0 () Bool)
(declare-fun AT0_PROC1_SW_A_B_TAU () Bool)
(declare-fun AT3_ID1 () Bool)
(declare-fun AT1_DELTA () Bool)
(declare-fun AT2_PROC1_TAU () Bool)
(declare-fun AT2_PROC1_SW_C_CS_TAU () Bool)
(declare-fun AT1_PROC1_SW_A_B_TAU () Bool)
(declare-fun AT0_Z () Int)
(declare-fun AT2_PROC1_WAIT () Bool)
(declare-fun AT3_PROC1_TAU () Bool)
(declare-fun AT1_PROC1_SW_CS_A_TAU () Bool)
(declare-fun AT2_PROC1_SW_A_B_TAU () Bool)
(declare-fun AT2_DELTA () Bool)
(declare-fun AT0_PROC1_SW_B_C_TAU () Bool)
(assert (let ((?v_0 (not AT0_PROC1_A)) (?v_1 (not AT0_PROC1_B)) (?v_2 (not AT0_PROC1_C)) (?v_3 (not AT0_PROC1_CS)) (?v_4 (not AT1_PROC1_A)) (?v_5 (not AT1_PROC1_B)) (?v_6 (not AT1_PROC1_C)) (?v_7 (not AT1_PROC1_CS)) (?v_8 (not AT2_PROC1_A)) (?v_9 (not AT2_PROC1_B)) (?v_10 (not AT2_PROC1_C)) (?v_11 (not AT2_PROC1_CS)) (?v_12 (not AT3_PROC1_A)) (?v_13 (not AT3_PROC1_B)) (?v_14 (not AT3_PROC1_C)) (?v_15 (not AT3_PROC1_CS)) (?v_16 (not AT4_PROC1_A)) (?v_17 (not AT4_PROC1_B)) (?v_18 (not AT4_PROC1_C)) (?v_19 (not AT4_PROC1_CS)) (?v_20 (= AT0_PROC1_X AT0_Z)) (?v_21 (> AT0_PROC1_X AT0_Z))) (let ((?v_89 (not ?v_20)) (?v_22 (= AT1_PROC1_X AT1_Z)) (?v_23 (> AT1_PROC1_X AT1_Z))) (let ((?v_88 (not ?v_22)) (?v_24 (= AT2_PROC1_X AT2_Z)) (?v_25 (> AT2_PROC1_X AT2_Z))) (let ((?v_94 (not ?v_24)) (?v_26 (= AT3_PROC1_X AT3_Z)) (?v_27 (> AT3_PROC1_X AT3_Z))) (let ((?v_100 (not ?v_26)) (?v_28 (= AT4_PROC1_X AT4_Z)) (?v_29 (> AT4_PROC1_X AT4_Z))) (let ((?v_106 (not ?v_28)) (?v_35 (- AT0_PROC1_X AT0_Z))) (let ((?v_32 (<= ?v_35 10)) (?v_42 (- AT1_PROC1_X AT1_Z))) (let ((?v_39 (<= ?v_42 10)) (?v_49 (- AT2_PROC1_X AT2_Z))) (let ((?v_46 (<= ?v_49 10)) (?v_56 (- AT3_PROC1_X AT3_Z))) (let ((?v_53 (<= ?v_56 10)) (?v_30 (not AT0_PROC1_SW_A_B_TAU)) (?v_31 (not AT0_PROC1_SW_B_C_TAU)) (?v_33 (not AT0_PROC1_SW_C_B_TAU)) (?v_34 (not AT0_PROC1_SW_C_CS_TAU)) (?v_63 (= AT1_PROC1_X AT0_PROC1_X)) (?v_36 (not AT0_PROC1_SW_CS_A_TAU)) (?v_37 (not AT1_PROC1_SW_A_B_TAU)) (?v_38 (not AT1_PROC1_SW_B_C_TAU)) (?v_40 (not AT1_PROC1_SW_C_B_TAU)) (?v_41 (not AT1_PROC1_SW_C_CS_TAU)) (?v_65 (= AT2_PROC1_X AT1_PROC1_X)) (?v_43 (not AT1_PROC1_SW_CS_A_TAU)) (?v_44 (not AT2_PROC1_SW_A_B_TAU)) (?v_45 (not AT2_PROC1_SW_B_C_TAU)) (?v_47 (not AT2_PROC1_SW_C_B_TAU)) (?v_48 (not AT2_PROC1_SW_C_CS_TAU)) (?v_67 (= AT3_PROC1_X AT2_PROC1_X)) (?v_50 (not AT2_PROC1_SW_CS_A_TAU)) (?v_51 (not AT3_PROC1_SW_A_B_TAU)) (?v_52 (not AT3_PROC1_SW_B_C_TAU)) (?v_54 (not AT3_PROC1_SW_C_B_TAU)) (?v_55 (not AT3_PROC1_SW_C_CS_TAU)) (?v_69 (= AT4_PROC1_X AT3_PROC1_X)) (?v_57 (not AT3_PROC1_SW_CS_A_TAU)) (?v_58 (= AT1_Z AT0_Z)) (?v_59 (= AT2_Z AT1_Z)) (?v_60 (= AT3_Z AT2_Z)) (?v_61 (= AT4_Z AT3_Z)) (?v_62 (not AT0_PROC1_WAIT)) (?v_71 (not AT0_PROC1_TAU)) (?v_64 (not AT1_PROC1_WAIT)) (?v_73 (not AT1_PROC1_TAU)) (?v_66 (not AT2_PROC1_WAIT)) (?v_75 (not AT2_PROC1_TAU)) (?v_68 (not AT3_PROC1_WAIT)) (?v_77 (not AT3_PROC1_TAU)) (?v_70 (not AT0_DELTA)) (?v_82 (< AT1_Z AT0_Z)) (?v_72 (not AT1_DELTA)) (?v_83 (< AT2_Z AT1_Z)) (?v_74 (not AT2_DELTA)) (?v_84 (< AT3_Z AT2_Z)) (?v_76 (not AT3_DELTA)) (?v_85 (< AT4_Z AT3_Z)) (?v_78 (< AT1_PROC1_X AT0_PROC1_X))) (let ((?v_86 (not ?v_63)) (?v_79 (< AT2_PROC1_X AT1_PROC1_X)) (?v_92 (not ?v_65)) (?v_80 (< AT3_PROC1_X AT2_PROC1_X)) (?v_98 (not ?v_67)) (?v_81 (< AT4_PROC1_X AT3_PROC1_X)) (?v_104 (not ?v_69)) (?v_87 (not ?v_58)) (?v_91 (not ?v_82)) (?v_93 (not ?v_59)) (?v_97 (not ?v_83)) (?v_99 (not ?v_60)) (?v_103 (not ?v_84)) (?v_105 (not ?v_61)) (?v_109 (not ?v_85))) (let ((?v_90 (or ?v_89 ?v_86)) (?v_96 (< AT1_Z AT1_PROC1_X)) (?v_95 (or ?v_88 ?v_92)) (?v_102 (< AT2_Z AT2_PROC1_X)) (?v_101 (or ?v_94 ?v_98)) (?v_108 (< AT3_Z AT3_PROC1_X)) (?v_107 (or ?v_100 ?v_104)) (?v_111 (not AT0_ID0)) (?v_110 (not AT0_ID1)) (?v_113 (not AT1_ID0)) (?v_112 (not AT1_ID1)) (?v_115 (not AT2_ID0)) (?v_114 (not AT2_ID1)) (?v_117 (not AT3_ID0)) (?v_116 (not AT3_ID1)) (?v_118 (not AT4_ID1)) (?v_119 (- AT4_PROC1_X AT4_Z))) (and (and (and (and (and (and (and (and (and (and (and (and (and (and (and (and (and (and (and (and (and (and (and (and (and (and (and (and (and (and (and (and (and (and (and (and (and (and (and (and (and (and (and (and (and (and (and (and (and (and (and (and (and (and (and (and (and (and (and (and (and (and (and (and (and (and (and (and (and (and (and (and (and (and (and (and (and (and (and (and (and (and (and (and (and (and (and (and (and (and (and (and (and (and (and (and (and (and (and (and (and (and (and (and (and (and (and (and (and (and (and (and (and (and (and (and (and (and (and (and (and (and (and (and (and (and (and (and (and (and (and (and (and (and (and (and (and (and (and (and (and (and (and (and (and (and (and (and (and (and (and (and (and (and (and (and (and (and (and (and (and (and (and (and (and (and (and (and (and (and (and (and (and (and (and (and (and (and (and (and (and (and (and (and (and (and (and (and (and (and (and (and (and (and (and (and (and (and (and (and (and (and (and (and (and (and (and (and (and (and (and (and (and (and (and (and (and (and (and (and (and (and (and (and (and (and (and (and (and (and (and (and (and (and (and (and (and (and (and (and (and (and (and (and (and (and (and (and (and (and (and (and (and (and (and (and (and (and (and (and (and (and (and (and (and (and (and (and (and (and (and (and (and (and (and (and (and (and (and (and (and (and (and (and (and (and (and (and (and (and (and (and (and (and (and (and (and (and (and (and (and (and (and (and (and (and (and (and (and (and (and (and (and (and (and (and (and (and (and (and (and (and (and (and (and (and (and (and (and (and (and (and (and (and (and (and (and (and (and (and (and (and (and (and (and (and (and (and (and (and (and (or ?v_0 ?v_1) (or ?v_0 ?v_2)) (or ?v_0 ?v_3)) (or ?v_1 ?v_2)) (or ?v_1 ?v_3)) (or ?v_2 ?v_3)) (or ?v_4 ?v_5)) (or ?v_4 ?v_6)) (or ?v_4 ?v_7)) (or ?v_5 ?v_6)) (or ?v_5 ?v_7)) (or ?v_6 ?v_7)) (or ?v_8 ?v_9)) (or ?v_8 ?v_10)) (or ?v_8 ?v_11)) (or ?v_9 ?v_10)) (or ?v_9 ?v_11)) (or ?v_10 ?v_11)) (or ?v_12 ?v_13)) (or ?v_12 ?v_14)) (or ?v_12 ?v_15)) (or ?v_13 ?v_14)) (or ?v_13 ?v_15)) (or ?v_14 ?v_15)) (or ?v_16 ?v_17)) (or ?v_16 ?v_18)) (or ?v_16 ?v_19)) (or ?v_17 ?v_18)) (or ?v_17 ?v_19)) (or ?v_18 ?v_19)) (or ?v_20 ?v_21)) (or ?v_89 (not ?v_21))) (or ?v_22 ?v_23)) (or ?v_88 (not ?v_23))) (or ?v_24 ?v_25)) (or ?v_94 (not ?v_25))) (or ?v_26 ?v_27)) (or ?v_100 (not ?v_27))) (or ?v_28 ?v_29)) (or ?v_106 (not ?v_29))) (or ?v_1 ?v_32)) (or ?v_5 ?v_39)) (or ?v_9 ?v_46)) (or ?v_13 ?v_53)) (or ?v_17 (<= ?v_119 10))) (or (or (or (or (or (or AT0_PROC1_WAIT AT0_DELTA) AT0_PROC1_SW_A_B_TAU) AT0_PROC1_SW_B_C_TAU) AT0_PROC1_SW_C_B_TAU) AT0_PROC1_SW_C_CS_TAU) AT0_PROC1_SW_CS_A_TAU)) (or (or (or (or (or (or AT1_PROC1_WAIT AT1_DELTA) AT1_PROC1_SW_A_B_TAU) AT1_PROC1_SW_B_C_TAU) AT1_PROC1_SW_C_B_TAU) AT1_PROC1_SW_C_CS_TAU) AT1_PROC1_SW_CS_A_TAU)) (or (or (or (or (or (or AT2_PROC1_WAIT AT2_DELTA) AT2_PROC1_SW_A_B_TAU) AT2_PROC1_SW_B_C_TAU) AT2_PROC1_SW_C_B_TAU) AT2_PROC1_SW_C_CS_TAU) AT2_PROC1_SW_CS_A_TAU)) (or (or (or (or (or (or AT3_PROC1_WAIT AT3_DELTA) AT3_PROC1_SW_A_B_TAU) AT3_PROC1_SW_B_C_TAU) AT3_PROC1_SW_C_B_TAU) AT3_PROC1_SW_C_CS_TAU) AT3_PROC1_SW_CS_A_TAU)) (or ?v_30 AT0_PROC1_A)) (or ?v_30 AT0_PROC1_TAU)) (or ?v_30 AT1_PROC1_B)) (or ?v_30 ?v_22)) (or ?v_31 AT0_PROC1_B)) (or ?v_31 AT0_PROC1_TAU)) (or ?v_31 AT1_PROC1_C)) (or ?v_31 ?v_32)) (or ?v_31 ?v_22)) (or ?v_33 AT0_PROC1_C)) (or ?v_33 AT0_PROC1_TAU)) (or ?v_33 AT1_PROC1_B)) (or ?v_33 ?v_22)) (or ?v_34 AT0_PROC1_C)) (or ?v_34 AT0_PROC1_TAU)) (or ?v_34 AT1_PROC1_CS)) (or ?v_34 (> ?v_35 10))) (or ?v_34 ?v_63)) (or ?v_36 AT0_PROC1_CS)) (or ?v_36 AT0_PROC1_TAU)) (or ?v_36 AT1_PROC1_A)) (or ?v_36 ?v_22)) (or ?v_37 AT1_PROC1_A)) (or ?v_37 AT1_PROC1_TAU)) (or ?v_37 AT2_PROC1_B)) (or ?v_37 ?v_24)) (or ?v_38 AT1_PROC1_B)) (or ?v_38 AT1_PROC1_TAU)) (or ?v_38 AT2_PROC1_C)) (or ?v_38 ?v_39)) (or ?v_38 ?v_24)) (or ?v_40 AT1_PROC1_C)) (or ?v_40 AT1_PROC1_TAU)) (or ?v_40 AT2_PROC1_B)) (or ?v_40 ?v_24)) (or ?v_41 AT1_PROC1_C)) (or ?v_41 AT1_PROC1_TAU)) (or ?v_41 AT2_PROC1_CS)) (or ?v_41 (> ?v_42 10))) (or ?v_41 ?v_65)) (or ?v_43 AT1_PROC1_CS)) (or ?v_43 AT1_PROC1_TAU)) (or ?v_43 AT2_PROC1_A)) (or ?v_43 ?v_24)) (or ?v_44 AT2_PROC1_A)) (or ?v_44 AT2_PROC1_TAU)) (or ?v_44 AT3_PROC1_B)) (or ?v_44 ?v_26)) (or ?v_45 AT2_PROC1_B)) (or ?v_45 AT2_PROC1_TAU)) (or ?v_45 AT3_PROC1_C)) (or ?v_45 ?v_46)) (or ?v_45 ?v_26)) (or ?v_47 AT2_PROC1_C)) (or ?v_47 AT2_PROC1_TAU)) (or ?v_47 AT3_PROC1_B)) (or ?v_47 ?v_26)) (or ?v_48 AT2_PROC1_C)) (or ?v_48 AT2_PROC1_TAU)) (or ?v_48 AT3_PROC1_CS)) (or ?v_48 (> ?v_49 10))) (or ?v_48 ?v_67)) (or ?v_50 AT2_PROC1_CS)) (or ?v_50 AT2_PROC1_TAU)) (or ?v_50 AT3_PROC1_A)) (or ?v_50 ?v_26)) (or ?v_51 AT3_PROC1_A)) (or ?v_51 AT3_PROC1_TAU)) (or ?v_51 AT4_PROC1_B)) (or ?v_51 ?v_28)) (or ?v_52 AT3_PROC1_B)) (or ?v_52 AT3_PROC1_TAU)) (or ?v_52 AT4_PROC1_C)) (or ?v_52 ?v_53)) (or ?v_52 ?v_28)) (or ?v_54 AT3_PROC1_C)) (or ?v_54 AT3_PROC1_TAU)) (or ?v_54 AT4_PROC1_B)) (or ?v_54 ?v_28)) (or ?v_55 AT3_PROC1_C)) (or ?v_55 AT3_PROC1_TAU)) (or ?v_55 AT4_PROC1_CS)) (or ?v_55 (> ?v_56 10))) (or ?v_55 ?v_69)) (or ?v_57 AT3_PROC1_CS)) (or ?v_57 AT3_PROC1_TAU)) (or ?v_57 AT4_PROC1_A)) (or ?v_57 ?v_28)) (or ?v_30 ?v_58)) (or ?v_31 ?v_58)) (or ?v_33 ?v_58)) (or ?v_34 ?v_58)) (or ?v_36 ?v_58)) (or ?v_37 ?v_59)) (or ?v_38 ?v_59)) (or ?v_40 ?v_59)) (or ?v_41 ?v_59)) (or ?v_43 ?v_59)) (or ?v_44 ?v_60)) (or ?v_45 ?v_60)) (or ?v_47 ?v_60)) (or ?v_48 ?v_60)) (or ?v_50 ?v_60)) (or ?v_51 ?v_61)) (or ?v_52 ?v_61)) (or ?v_54 ?v_61)) (or ?v_55 ?v_61)) (or ?v_57 ?v_61)) (or (or ?v_62 ?v_0) AT1_PROC1_A)) (or (or ?v_62 AT0_PROC1_A) ?v_4)) (or (or ?v_62 ?v_1) AT1_PROC1_B)) (or (or ?v_62 AT0_PROC1_B) ?v_5)) (or (or ?v_62 ?v_2) AT1_PROC1_C)) (or (or ?v_62 AT0_PROC1_C) ?v_6)) (or (or ?v_62 ?v_3) AT1_PROC1_CS)) (or (or ?v_62 AT0_PROC1_CS) ?v_7)) (or ?v_62 ?v_71)) (or ?v_62 ?v_63)) (or ?v_62 ?v_58)) (or (or ?v_64 ?v_4) AT2_PROC1_A)) (or (or ?v_64 AT1_PROC1_A) ?v_8)) (or (or ?v_64 ?v_5) AT2_PROC1_B)) (or (or ?v_64 AT1_PROC1_B) ?v_9)) (or (or ?v_64 ?v_6) AT2_PROC1_C)) (or (or ?v_64 AT1_PROC1_C) ?v_10)) (or (or ?v_64 ?v_7) AT2_PROC1_CS)) (or (or ?v_64 AT1_PROC1_CS) ?v_11)) (or ?v_64 ?v_73)) (or ?v_64 ?v_65)) (or ?v_64 ?v_59)) (or (or ?v_66 ?v_8) AT3_PROC1_A)) (or (or ?v_66 AT2_PROC1_A) ?v_12)) (or (or ?v_66 ?v_9) AT3_PROC1_B)) (or (or ?v_66 AT2_PROC1_B) ?v_13)) (or (or ?v_66 ?v_10) AT3_PROC1_C)) (or (or ?v_66 AT2_PROC1_C) ?v_14)) (or (or ?v_66 ?v_11) AT3_PROC1_CS)) (or (or ?v_66 AT2_PROC1_CS) ?v_15)) (or ?v_66 ?v_75)) (or ?v_66 ?v_67)) (or ?v_66 ?v_60)) (or (or ?v_68 ?v_12) AT4_PROC1_A)) (or (or ?v_68 AT3_PROC1_A) ?v_16)) (or (or ?v_68 ?v_13) AT4_PROC1_B)) (or (or ?v_68 AT3_PROC1_B) ?v_17)) (or (or ?v_68 ?v_14) AT4_PROC1_C)) (or (or ?v_68 AT3_PROC1_C) ?v_18)) (or (or ?v_68 ?v_15) AT4_PROC1_CS)) (or (or ?v_68 AT3_PROC1_CS) ?v_19)) (or ?v_68 ?v_77)) (or ?v_68 ?v_69)) (or ?v_68 ?v_61)) (or (or ?v_70 ?v_0) AT1_PROC1_A)) (or (or ?v_70 AT0_PROC1_A) ?v_4)) (or (or ?v_70 ?v_1) AT1_PROC1_B)) (or (or ?v_70 AT0_PROC1_B) ?v_5)) (or (or ?v_70 ?v_2) AT1_PROC1_C)) (or (or ?v_70 AT0_PROC1_C) ?v_6)) (or (or ?v_70 ?v_3) AT1_PROC1_CS)) (or (or ?v_70 AT0_PROC1_CS) ?v_7)) (or ?v_70 ?v_63)) (or ?v_70 ?v_71)) (or ?v_70 ?v_82)) (or (or ?v_72 ?v_4) AT2_PROC1_A)) (or (or ?v_72 AT1_PROC1_A) ?v_8)) (or (or ?v_72 ?v_5) AT2_PROC1_B)) (or (or ?v_72 AT1_PROC1_B) ?v_9)) (or (or ?v_72 ?v_6) AT2_PROC1_C)) (or (or ?v_72 AT1_PROC1_C) ?v_10)) (or (or ?v_72 ?v_7) AT2_PROC1_CS)) (or (or ?v_72 AT1_PROC1_CS) ?v_11)) (or ?v_72 ?v_65)) (or ?v_72 ?v_73)) (or ?v_72 ?v_83)) (or (or ?v_74 ?v_8) AT3_PROC1_A)) (or (or ?v_74 AT2_PROC1_A) ?v_12)) (or (or ?v_74 ?v_9) AT3_PROC1_B)) (or (or ?v_74 AT2_PROC1_B) ?v_13)) (or (or ?v_74 ?v_10) AT3_PROC1_C)) (or (or ?v_74 AT2_PROC1_C) ?v_14)) (or (or ?v_74 ?v_11) AT3_PROC1_CS)) (or (or ?v_74 AT2_PROC1_CS) ?v_15)) (or ?v_74 ?v_67)) (or ?v_74 ?v_75)) (or ?v_74 ?v_84)) (or (or ?v_76 ?v_12) AT4_PROC1_A)) (or (or ?v_76 AT3_PROC1_A) ?v_16)) (or (or ?v_76 ?v_13) AT4_PROC1_B)) (or (or ?v_76 AT3_PROC1_B) ?v_17)) (or (or ?v_76 ?v_14) AT4_PROC1_C)) (or (or ?v_76 AT3_PROC1_C) ?v_18)) (or (or ?v_76 ?v_15) AT4_PROC1_CS)) (or (or ?v_76 AT3_PROC1_CS) ?v_19)) (or ?v_76 ?v_69)) (or ?v_76 ?v_77)) (or ?v_76 ?v_85)) (or ?v_63 ?v_78)) (or ?v_86 (not ?v_78))) (or ?v_65 ?v_79)) (or ?v_92 (not ?v_79))) (or ?v_67 ?v_80)) (or ?v_98 (not ?v_80))) (or ?v_69 ?v_81)) (or ?v_104 (not ?v_81))) (or ?v_70 ?v_72)) (or ?v_72 ?v_74)) (or ?v_74 ?v_76)) (or ?v_58 ?v_82)) (or ?v_87 ?v_91)) (or ?v_59 ?v_83)) (or ?v_93 ?v_97)) (or ?v_60 ?v_84)) (or ?v_99 ?v_103)) (or ?v_61 ?v_85)) (or ?v_105 ?v_109)) (or (or (or ?v_20 ?v_86) ?v_87) ?v_88)) (or (or (or ?v_89 ?v_63) ?v_87) ?v_88)) (or (or ?v_90 ?v_58) ?v_88)) (or (or ?v_90 ?v_87) ?v_22)) (or (or (or (not (< AT0_Z AT0_PROC1_X)) ?v_86) ?v_91) ?v_96)) (or (or (or ?v_22 ?v_92) ?v_93) ?v_94)) (or (or (or ?v_88 ?v_65) ?v_93) ?v_94)) (or (or ?v_95 ?v_59) ?v_94)) (or (or ?v_95 ?v_93) ?v_24)) (or (or (or (not ?v_96) ?v_92) ?v_97) ?v_102)) (or (or (or ?v_24 ?v_98) ?v_99) ?v_100)) (or (or (or ?v_94 ?v_67) ?v_99) ?v_100)) (or (or ?v_101 ?v_60) ?v_100)) (or (or ?v_101 ?v_99) ?v_26)) (or (or (or (not ?v_102) ?v_98) ?v_103) ?v_108)) (or (or (or ?v_26 ?v_104) ?v_105) ?v_106)) (or (or (or ?v_100 ?v_69) ?v_105) ?v_106)) (or (or ?v_107 ?v_61) ?v_106)) (or (or ?v_107 ?v_105) ?v_28)) (or (or (or (not ?v_108) ?v_104) ?v_109) (< AT4_Z AT4_PROC1_X))) AT0_PROC1_A) ?v_20) AT0_ID0) ?v_62) ?v_64) ?v_66) ?v_68) (or ?v_111 ?v_110)) (or ?v_113 ?v_112)) (or ?v_115 ?v_114)) (or ?v_117 ?v_116)) (or (not AT4_ID0) ?v_118)) (or ?v_30 AT0_ID0)) (or ?v_30 AT1_ID0)) (or ?v_31 AT1_ID1)) (or ?v_33 AT0_ID0)) (or ?v_33 AT1_ID0)) (or ?v_34 AT0_ID1)) (or ?v_34 AT1_ID1)) (or ?v_36 AT1_ID0)) (or (or ?v_70 ?v_110) AT1_ID1)) (or (or ?v_70 ?v_111) AT1_ID0)) (or ?v_37 AT1_ID0)) (or ?v_37 AT2_ID0)) (or ?v_38 AT2_ID1)) (or ?v_40 AT1_ID0)) (or ?v_40 AT2_ID0)) (or ?v_41 AT1_ID1)) (or ?v_41 AT2_ID1)) (or ?v_43 AT2_ID0)) (or (or ?v_72 ?v_112) AT2_ID1)) (or (or ?v_72 ?v_113) AT2_ID0)) (or ?v_44 AT2_ID0)) (or ?v_44 AT3_ID0)) (or ?v_45 AT3_ID1)) (or ?v_47 AT2_ID0)) (or ?v_47 AT3_ID0)) (or ?v_48 AT2_ID1)) (or ?v_48 AT3_ID1)) (or ?v_50 AT3_ID0)) (or (or ?v_74 ?v_114) AT3_ID1)) (or (or ?v_74 ?v_115) AT3_ID0)) (or ?v_51 AT3_ID0)) (or ?v_51 AT4_ID0)) (or ?v_52 AT4_ID1)) (or ?v_54 AT3_ID0)) (or ?v_54 AT4_ID0)) (or ?v_55 AT3_ID1)) (or ?v_55 AT4_ID1)) (or ?v_57 AT4_ID0)) (or (or ?v_76 ?v_116) AT4_ID1)) (or (or ?v_76 ?v_117) AT4_ID0)) (or ?v_4 AT4_PROC1_A)) (or AT1_PROC1_A ?v_16)) (or ?v_5 AT4_PROC1_B)) (or AT1_PROC1_B ?v_17)) (or ?v_6 AT4_PROC1_C)) (or AT1_PROC1_C ?v_18)) (or ?v_7 AT4_PROC1_CS)) (or AT1_PROC1_CS ?v_19)) (or ?v_112 AT4_ID1)) (or AT1_ID1 ?v_118)) (= ?v_42 ?v_119)) (or (or (or AT1_PROC1_B AT2_PROC1_B) AT3_PROC1_B) AT4_PROC1_B)) ?v_7) ?v_11) ?v_15) ?v_19))))))))))))))
(check-sat)
(exit)
